c User generated cnf file
p cnf 15 21
2 1 -11 0 
9 8 -1 0 
2 9 -11 0 
-5 14 6 0 
8 6 -8 0 
14 9 -7 0 
-1 2 6 0 
11 -4 12 0 
10 10 -7 0 
10 10 -2 0 
13 -5 3 0 
-5 7 1 0 
-8 9 2 0 
10 1 -14 0 
5 -12 13 0 
-1 15 6 0 
13 -14 13 0 
13 7 -6 0 
-12 8 2 0 
8 3 -10 0 
7 14 -13 0 
